c Instancia generada aleatoriamente
p edge 50 130
e 1 6
e 1 15
e 1 17
e 1 50
e 2 15
e 2 16
e 2 32
e 2 36
e 2 39
e 2 42
e 2 48
e 3 9
e 3 15
e 3 18
e 3 23
e 3 48
e 4 12
e 4 22
e 4 26
e 4 40
e 5 6
e 5 29
e 5 33
e 6 10
e 6 35
e 7 14
e 7 39
e 7 40
e 7 45
e 8 12
e 8 14
e 8 17
e 8 21
e 8 27
e 8 35
e 8 39
e 9 19
e 9 37
e 10 12
e 10 25
e 10 33
e 10 38
e 10 44
e 10 48
e 11 13
e 11 19
e 11 39
e 11 46
e 12 28
e 12 32
e 12 36
e 12 37
e 12 44
e 13 16
e 13 18
e 13 40
e 13 41
e 13 42
e 14 32
e 14 35
e 14 39
e 14 49
e 15 17
e 15 20
e 15 29
e 15 35
e 15 45
e 16 19
e 16 20
e 16 44
e 17 19
e 17 20
e 17 24
e 17 29
e 17 30
e 17 33
e 17 42
e 17 50
e 18 20
e 19 32
e 19 47
e 20 22
e 20 32
e 20 42
e 21 34
e 21 38
e 21 45
e 22 31
e 22 38
e 23 33
e 23 38
e 24 43
e 24 46
e 25 28
e 25 30
e 25 40
e 25 43
e 25 46
e 26 37
e 26 41
e 26 46
e 27 45
e 28 30
e 28 32
e 28 33
e 28 37
e 28 42
e 28 50
e 29 32
e 29 40
e 29 45
e 30 34
e 30 35
e 30 39
e 30 42
e 30 49
e 31 38
e 31 43
e 32 42
e 33 35
e 33 41
e 33 48
e 38 43
e 38 44
e 38 47
e 38 48
e 39 46
e 42 46
e 44 46
e 45 47
